NAME : rnd3_50.tsp
TYPE : TSP
DIMENSION : 50
EDGE_WEIGHT_TYPE : EUC_2D
NODE_COORD_SECTION
1 8 312
2 934 185
3 388 945
4 853 685
5 395 651
6 995 193
7 486 365
8 337 540
9 288 82
10 961 189
11 377 885
12 707 370
13 872 421
14 191 154
15 664 150
16 1 545
17 790 246
18 117 281
19 11 151
20 818 636
21 141 498
22 283 353
23 67 911
24 708 64
25 427 430
26 318 845
27 545 75
28 726 406
29 86 332
30 783 276
31 590 578
32 492 452
33 583 239
34 880 295
35 527 422
36 573 717
37 399 393
38 403 148
39 547 474
40 38 940
41 878 40
42 106 279
43 56 175
44 654 462
45 981 289
46 75 931
47 441 23
48 629 553
49 9 475
50 358 903
